c defined variables: 33 34 35 36 37 38 39 40 41 42 43 44 45 46 47 48 49 50 51 52 53 54 55 56 57 58 59 60 61 62 63 64 65 66 67 68 69 70 71 72 73 74 75 76 77 78 79 80 81 82 83 84 85 86 87 88 89 90 91 92 93 94 95 96 97 98 99 100 101 102 103 104 105 106 107 108 109 110 111 112 113 114 115 116 117 118 119 120 121 122 123 124 125 126 127 128 129 130 131 132 133 134 135 136 137 138 139 140 141 142 143 144 145 146 147 148 149 150 151 152 153 154 155 156 157 158 159 160 161 162 163 164 165 166 167 182 183 184 185 186 187 188 189 190 191 192 193 194 195 196 197 198 199 200 201 202 203 204 205 206 207 208 209 210 211 212 213 214 215 216 217 218 219 220 221 222 223 224 225 226 227 228 229 230 231 232 233 234 235 236 237 238 239 240 241 242 243 244 245 246 247 248 249 250 251 252 253 254 255 256 260 261 262 263 265 266 267 268 269 270 271 272 273 274 275 276 277 279 282 283 284 285 286 287 288 289 290 291 292 293 294 295 296 297 298 299 300 301 302 303 304 305 306 307 308 309 310 311 312 313 314 315 316 317 318 319 
p cnf 1436 2178
a 1 2 3 4 5 6 7 8 9 10 11 12 13 14 15 16 17 18 19 20 21 22 23 24 25 26 27 28 29 30 31 32 172 173 174 175 176 177 178 179 180 181 0
e 33 34 35 36 37 38 39 40 41 42 43 44 45 46 47 48 49 50 51 52 53 54 55 56 57 58 59 60 61 62 63 64 65 66 67 68 69 70 71 72 73 74 75 76 77 78 79 80 81 82 83 84 85 86 87 88 89 90 91 92 93 94 95 96 97 98 99 100 101 102 103 104 105 106 107 108 109 110 111 112 113 114 115 116 117 118 119 120 121 122 123 124 125 126 127 128 129 130 131 132 133 134 135 136 137 138 139 140 141 142 143 144 145 146 147 148 149 150 151 152 153 154 155 156 157 158 159 160 161 162 163 164 165 166 167 182 183 184 185 186 187 188 189 190 191 192 193 194 195 196 197 198 199 200 201 202 203 204 205 206 207 208 209 210 211 212 213 214 215 216 217 218 219 220 221 222 223 224 225 226 227 228 229 230 231 232 233 234 235 236 237 238 239 240 241 242 243 244 245 246 247 248 249 250 251 252 253 254 255 256 260 261 262 263 265 266 267 268 269 270 271 272 273 274 275 276 277 279 282 283 284 285 286 287 288 289 290 291 292 293 294 295 296 297 298 299 300 301 302 303 304 305 306 307 308 309 310 311 312 313 314 315 316 317 318 319 1172 1173 1174 1175 1176 1177 1178 1179 1180 1181 1182 1183 1184 1185 1186 1187 1188 1189 1190 1191 1192 1193 1194 1195 1196 1197 1198 1199 1200 1201 1202 1203 1204 1205 1206 1207 1208 1209 1210 1211 1212 1213 1214 1215 1216 1217 1218 1219 1220 1221 1222 1223 1224 1225 1226 1227 1228 1229 1230 1231 1232 1233 1234 1235 1236 1237 1238 1239 1240 1241 1242 1243 1244 1245 1246 1247 1248 1249 1250 1251 1252 1253 1254 1255 1256 1257 1258 1259 1260 1261 1262 1263 1264 1265 1266 1267 1268 1269 1270 1271 1272 1273 1274 1275 1276 1277 1278 1279 1280 1281 1282 1283 1284 1285 1286 1287 1288 1289 1290 1291 1292 1293 1294 1295 1296 1297 1298 1299 1300 1301 1302 1303 1304 1305 1306 1307 1308 1309 1310 1311 1312 1313 1314 1315 1316 1317 1318 1319 1320 1321 1322 1323 1324 1325 1326 1327 1328 1329 1330 1331 1332 1333 1334 1335 1336 1337 1338 1339 1340 1341 1342 1343 1344 1345 1346 1347 1348 1349 1350 1351 1352 1353 1354 1355 1356 1357 1358 1359 1360 1361 1362 1363 1364 1365 1366 1367 1368 1369 1370 1371 1372 1373 1374 1375 1376 1377 1378 1379 1380 1381 1382 1383 1384 1385 1386 1387 1388 1389 1390 1391 1392 1393 1394 1395 1396 1397 1398 1399 1400 1401 1402 1403 1404 1405 1406 1407 1408 1409 1410 1411 1412 1413 1414 1415 1416 1417 1418 1419 1420 1421 1422 1423 1424 1425 1426 1427 1428 1429 1430 1431 1432 1433 1434 1435 1436 0
d 168 172 173 0
d 169 174 175 176 177 178 179 180 181 0
d 170 174 175 176 177 178 179 180 181 0
d 171 174 175 176 177 178 179 180 181 0
d 257 1 2 3 4 5 6 7 8 9 10 11 12 13 14 15 16 17 18 19 20 21 22 23 24 25 26 27 28 29 30 31 32 172 173 174 175 176 177 178 179 180 181 0
d 258 1 2 3 4 5 6 7 8 9 10 11 12 13 14 15 16 17 18 19 20 21 22 23 24 25 26 27 28 29 30 31 32 172 173 174 175 176 177 178 179 180 181 0
d 259 1 2 3 4 5 6 7 8 9 10 11 12 13 14 15 16 17 18 19 20 21 22 23 24 25 26 27 28 29 30 31 32 172 173 174 175 176 177 178 179 180 181 0
d 264 1 2 3 4 5 6 7 8 9 10 11 12 13 14 15 16 17 18 19 20 21 22 23 24 25 26 27 28 29 30 31 32 172 173 174 175 176 177 178 179 180 181 0
d 278 1 2 3 4 5 6 7 8 9 10 11 12 13 14 15 16 17 18 19 20 21 22 23 24 25 26 27 28 29 30 31 32 172 173 174 175 176 177 178 179 180 181 0
d 280 1 2 3 4 5 6 7 8 9 10 11 12 13 14 15 16 17 18 19 20 21 22 23 24 25 26 27 28 29 30 31 32 172 173 174 175 176 177 178 179 180 181 0
d 281 1 2 3 4 5 6 7 8 9 10 11 12 13 14 15 16 17 18 19 20 21 22 23 24 25 26 27 28 29 30 31 32 172 173 174 175 176 177 178 179 180 181 0
1172 -33 0
-1172 33 0
1173 -34 0
-1173 34 0
-1174 -35 0
1174 35 0
1175 -36 0
-1175 36 0
1176 -37 0
-1176 37 0
-1177 -38 0
1177 38 0
1178 -39 0
-1178 39 0
1179 -40 0
-1179 40 0
-1180 -41 0
1180 41 0
-12 -42 0
12 42 0
-1181 -43 0
1181 43 0
-11 -44 0
11 44 0
-1182 -45 0
1182 45 0
-10 -46 0
10 46 0
-1183 -47 0
1183 47 0
-9 -48 0
9 48 0
-1184 -49 0
1184 49 0
-49 -50 0
49 50 0
1185 -51 0
-1185 51 0
1187 -52 0
-1187 52 0
1189 -53 0
-1189 53 0
-1192 -54 0
1192 54 0
1193 -55 0
-1193 55 0
1194 -56 0
-1194 56 0
-1195 -57 0
1195 57 0
1196 -58 0
-1196 58 0
1197 -59 0
-1197 59 0
1198 -60 0
-1198 60 0
1199 -61 0
-1199 61 0
-1200 -62 0
1200 62 0
1201 -63 0
-1201 63 0
1202 -64 0
-1202 64 0
-1203 -65 0
1203 65 0
1204 -66 0
-1204 66 0
1205 -67 0
-1205 67 0
-1206 -68 0
1206 68 0
1207 -69 0
-1207 69 0
1208 -70 0
-1208 70 0
-1209 -71 0
1209 71 0
-8 -72 0
8 72 0
-1210 -73 0
1210 73 0
-7 -74 0
7 74 0
-1211 -75 0
1211 75 0
-6 -76 0
6 76 0
-1212 -77 0
1212 77 0
-5 -78 0
5 78 0
-1213 -79 0
1213 79 0
-79 -80 0
79 80 0
1214 -81 0
-1214 81 0
1216 -82 0
-1216 82 0
1218 -83 0
-1218 83 0
-1221 -84 0
1221 84 0
1222 -85 0
-1222 85 0
1223 -86 0
-1223 86 0
-1224 -87 0
1224 87 0
1225 -88 0
-1225 88 0
1226 -89 0
-1226 89 0
1227 -90 0
-1227 90 0
1228 -91 0
-1228 91 0
-1229 -92 0
1229 92 0
1230 -93 0
-1230 93 0
1231 -94 0
-1231 94 0
-1232 -95 0
1232 95 0
1233 -96 0
-1233 96 0
1234 -97 0
-1234 97 0
-1235 -98 0
1235 98 0
1236 -99 0
-1236 99 0
1237 -100 0
-1237 100 0
-1238 -101 0
1238 101 0
-4 -102 0
4 102 0
-1239 -103 0
1239 103 0
-3 -104 0
3 104 0
-1240 -105 0
1240 105 0
-2 -106 0
2 106 0
-1241 -107 0
1241 107 0
-1 -108 0
1 108 0
-1242 -109 0
1242 109 0
-109 -110 0
109 110 0
1243 -111 0
-1243 111 0
1245 -112 0
-1245 112 0
1247 -113 0
-1247 113 0
-1250 -114 0
1250 114 0
1251 -115 0
-1251 115 0
1252 -116 0
-1252 116 0
-1253 -117 0
1253 117 0
1254 -118 0
-1254 118 0
1255 -119 0
-1255 119 0
1256 -120 0
-1256 120 0
1257 -121 0
-1257 121 0
-1258 -122 0
1258 122 0
1259 -123 0
-1259 123 0
1260 -124 0
-1260 124 0
-1261 -125 0
1261 125 0
1262 -126 0
-1262 126 0
1263 -127 0
-1263 127 0
-1264 -128 0
1264 128 0
1265 -129 0
-1265 129 0
1266 -130 0
-1266 130 0
-1267 -131 0
1267 131 0
-16 -132 0
16 132 0
-1268 -133 0
1268 133 0
-15 -134 0
15 134 0
-1269 -135 0
1269 135 0
-14 -136 0
14 136 0
-1270 -137 0
1270 137 0
-13 -138 0
13 138 0
-1271 -139 0
1271 139 0
-139 -140 0
139 140 0
1272 -141 0
-1272 141 0
1274 -142 0
-1274 142 0
1276 -143 0
-1276 143 0
-1279 -144 0
1279 144 0
1280 -145 0
-1280 145 0
1281 -146 0
-1281 146 0
-1282 -147 0
1282 147 0
1283 -148 0
-1283 148 0
1284 -149 0
-1284 149 0
-144 -150 0
144 150 0
-1285 -151 0
1285 151 0
-54 -152 0
54 152 0
-1286 -153 0
1286 153 0
-84 -154 0
84 154 0
-1287 -155 0
1287 155 0
-114 -156 0
114 156 0
-1288 -157 0
1288 157 0
-157 -158 0
157 158 0
1289 -159 0
-1289 159 0
1291 -160 0
-1291 160 0
1293 -161 0
-1293 161 0
-1296 -162 0
1296 162 0
1297 -163 0
-1297 163 0
1298 -164 0
-1298 164 0
-1299 -165 0
1299 165 0
1300 -166 0
-1300 166 0
1301 -167 0
-1301 167 0
1172 -182 0
-1172 182 0
1173 -183 0
-1173 183 0
-1302 -184 0
1302 184 0
1175 -185 0
-1175 185 0
1176 -186 0
-1176 186 0
-1303 -187 0
1303 187 0
1178 -188 0
-1178 188 0
1179 -189 0
-1179 189 0
-1304 -190 0
1304 190 0
-12 -191 0
12 191 0
-1305 -192 0
1305 192 0
-11 -193 0
11 193 0
-1306 -194 0
1306 194 0
-10 -195 0
10 195 0
-1307 -196 0
1307 196 0
-9 -197 0
9 197 0
-1308 -198 0
1308 198 0
-198 -199 0
198 199 0
1309 -200 0
-1309 200 0
1311 -201 0
-1311 201 0
1313 -202 0
-1313 202 0
-1316 -203 0
1316 203 0
1193 -204 0
-1193 204 0
1194 -205 0
-1194 205 0
-1317 -206 0
1317 206 0
1318 -207 0
-1318 207 0
1319 -208 0
-1319 208 0
1320 -209 0
-1320 209 0
1321 -210 0
-1321 210 0
-1322 -211 0
1322 211 0
1201 -212 0
-1201 212 0
1202 -213 0
-1202 213 0
-1323 -214 0
1323 214 0
1204 -215 0
-1204 215 0
1205 -216 0
-1205 216 0
-1324 -217 0
1324 217 0
1207 -218 0
-1207 218 0
1208 -219 0
-1208 219 0
-1325 -220 0
1325 220 0
-8 -221 0
8 221 0
-1326 -222 0
1326 222 0
-7 -223 0
7 223 0
-1327 -224 0
1327 224 0
-6 -225 0
6 225 0
-1328 -226 0
1328 226 0
-5 -227 0
5 227 0
-1329 -228 0
1329 228 0
-228 -229 0
228 229 0
1330 -230 0
-1330 230 0
1332 -231 0
-1332 231 0
1334 -232 0
-1334 232 0
-1337 -233 0
1337 233 0
1222 -234 0
-1222 234 0
1223 -235 0
-1223 235 0
-1338 -236 0
1338 236 0
1339 -237 0
-1339 237 0
1340 -238 0
-1340 238 0
1341 -239 0
-1341 239 0
1342 -240 0
-1342 240 0
-1343 -241 0
1343 241 0
1230 -242 0
-1230 242 0
1231 -243 0
-1231 243 0
-1344 -244 0
1344 244 0
1233 -245 0
-1233 245 0
1234 -246 0
-1234 246 0
-1345 -247 0
1345 247 0
-4 -248 0
4 248 0
-1346 -249 0
1346 249 0
-3 -250 0
3 250 0
-1347 -251 0
1347 251 0
-2 -252 0
2 252 0
-1348 -253 0
1348 253 0
-1 -254 0
1 254 0
-1349 -255 0
1349 255 0
-255 -256 0
255 256 0
-1352 -260 0
1352 260 0
1251 -261 0
-1251 261 0
1252 -262 0
-1252 262 0
-1353 -263 0
1353 263 0
1354 -265 0
-1354 265 0
1355 -266 0
-1355 266 0
1356 -267 0
-1356 267 0
-1357 -268 0
1357 268 0
-203 -269 0
203 269 0
-1358 -270 0
1358 270 0
-233 -271 0
233 271 0
-1359 -272 0
1359 272 0
-260 -273 0
260 273 0
-1360 -274 0
1360 274 0
-274 -275 0
274 275 0
1361 -276 0
-1361 276 0
1363 -277 0
-1363 277 0
-1366 -279 0
1366 279 0
-1367 -282 0
1367 282 0
1369 -283 0
-1369 283 0
1370 -284 0
-1370 284 0
1259 -285 0
-1259 285 0
1260 -286 0
-1260 286 0
-1371 -287 0
1371 287 0
1262 -288 0
-1262 288 0
1263 -289 0
-1263 289 0
-1372 -290 0
1372 290 0
1265 -291 0
-1265 291 0
1266 -292 0
-1266 292 0
-1373 -293 0
1373 293 0
-16 -294 0
16 294 0
-1374 -295 0
1374 295 0
-15 -296 0
15 296 0
-1375 -297 0
1375 297 0
-14 -298 0
14 298 0
-1376 -299 0
1376 299 0
-13 -300 0
13 300 0
-1377 -301 0
1377 301 0
1280 -302 0
-1280 302 0
1281 -303 0
-1281 303 0
-1378 -304 0
1378 304 0
1381 -305 0
-1381 305 0
1384 -306 0
-1384 306 0
1387 -307 0
-1387 307 0
1390 -308 0
-1390 308 0
1392 -309 0
-1392 309 0
1395 -310 0
-1395 310 0
1398 -311 0
-1398 311 0
1406 -312 0
-1406 312 0
-1412 -313 0
1412 313 0
-1418 -314 0
1418 314 0
1421 -315 0
-1421 315 0
-1425 -316 0
1425 316 0
1430 -317 0
-1430 317 0
-1433 -318 0
1433 318 0
1436 -319 0
-1436 319 0
-33 -11 0
-33 27 0
11 -27 33 0
-34 11 0
-34 -27 0
-11 27 34 0
-33 35 0
-34 35 0
-35 33 34 0
-36 -10 0
-36 26 0
10 -26 36 0
-37 10 0
-37 -26 0
-10 26 37 0
-36 38 0
-37 38 0
-38 36 37 0
-39 -9 0
-39 25 0
9 -25 39 0
-40 9 0
-40 -25 0
-9 25 40 0
-39 41 0
-40 41 0
-41 39 40 0
-12 -42 0
12 42 0
-42 43 0
-28 43 0
-43 42 28 0
-11 -44 0
11 44 0
-44 45 0
-27 45 0
-45 44 27 0
-10 -46 0
10 46 0
-46 47 0
-26 47 0
-47 46 26 0
-9 -48 0
9 48 0
-48 49 0
-25 49 0
-49 48 25 0
-49 -50 0
49 50 0
-51 -41 0
-51 -47 0
41 47 51 0
-52 -38 0
-52 -41 0
-52 -45 0
38 41 45 52 0
-53 -35 0
-53 -38 0
-53 -41 0
-53 -43 0
35 38 41 43 53 0
-50 54 0
-51 54 0
-52 54 0
-53 54 0
-54 50 51 52 53 0
-55 -12 0
-55 28 0
12 -28 55 0
-56 12 0
-56 -28 0
-12 28 56 0
-55 57 0
-56 57 0
-57 55 56 0
-58 -57 0
-58 -35 0
-58 -38 0
-58 -41 0
57 35 38 41 58 0
-59 -54 0
-59 -58 0
54 58 59 0
-60 -54 0
-60 59 0
54 -59 60 0
-61 54 0
-61 -59 0
-54 59 61 0
-60 62 0
-61 62 0
-62 60 61 0
-63 -7 0
-63 23 0
7 -23 63 0
-64 7 0
-64 -23 0
-7 23 64 0
-63 65 0
-64 65 0
-65 63 64 0
-66 -6 0
-66 22 0
6 -22 66 0
-67 6 0
-67 -22 0
-6 22 67 0
-66 68 0
-67 68 0
-68 66 67 0
-69 -5 0
-69 21 0
5 -21 69 0
-70 5 0
-70 -21 0
-5 21 70 0
-69 71 0
-70 71 0
-71 69 70 0
-8 -72 0
8 72 0
-72 73 0
-24 73 0
-73 72 24 0
-7 -74 0
7 74 0
-74 75 0
-23 75 0
-75 74 23 0
-6 -76 0
6 76 0
-76 77 0
-22 77 0
-77 76 22 0
-5 -78 0
5 78 0
-78 79 0
-21 79 0
-79 78 21 0
-79 -80 0
79 80 0
-81 -71 0
-81 -77 0
71 77 81 0
-82 -68 0
-82 -71 0
-82 -75 0
68 71 75 82 0
-83 -65 0
-83 -68 0
-83 -71 0
-83 -73 0
65 68 71 73 83 0
-80 84 0
-81 84 0
-82 84 0
-83 84 0
-84 80 81 82 83 0
-85 -8 0
-85 24 0
8 -24 85 0
-86 8 0
-86 -24 0
-8 24 86 0
-85 87 0
-86 87 0
-87 85 86 0
-88 -87 0
-88 -65 0
-88 -68 0
-88 -71 0
87 65 68 71 88 0
-89 -84 0
-89 -88 0
84 88 89 0
-90 -84 0
-90 89 0
84 -89 90 0
-91 84 0
-91 -89 0
-84 89 91 0
-90 92 0
-91 92 0
-92 90 91 0
-93 -3 0
-93 19 0
3 -19 93 0
-94 3 0
-94 -19 0
-3 19 94 0
-93 95 0
-94 95 0
-95 93 94 0
-96 -2 0
-96 18 0
2 -18 96 0
-97 2 0
-97 -18 0
-2 18 97 0
-96 98 0
-97 98 0
-98 96 97 0
-99 -1 0
-99 17 0
1 -17 99 0
-100 1 0
-100 -17 0
-1 17 100 0
-99 101 0
-100 101 0
-101 99 100 0
-4 -102 0
4 102 0
-102 103 0
-20 103 0
-103 102 20 0
-3 -104 0
3 104 0
-104 105 0
-19 105 0
-105 104 19 0
-2 -106 0
2 106 0
-106 107 0
-18 107 0
-107 106 18 0
-1 -108 0
1 108 0
-108 109 0
-17 109 0
-109 108 17 0
-109 -110 0
109 110 0
-111 -101 0
-111 -107 0
101 107 111 0
-112 -98 0
-112 -101 0
-112 -105 0
98 101 105 112 0
-113 -95 0
-113 -98 0
-113 -101 0
-113 -103 0
95 98 101 103 113 0
-110 114 0
-111 114 0
-112 114 0
-113 114 0
-114 110 111 112 113 0
-115 -4 0
-115 20 0
4 -20 115 0
-116 4 0
-116 -20 0
-4 20 116 0
-115 117 0
-116 117 0
-117 115 116 0
-118 -117 0
-118 -95 0
-118 -98 0
-118 -101 0
117 95 98 101 118 0
-119 -114 0
-119 -118 0
114 118 119 0
-120 -114 0
-120 119 0
114 -119 120 0
-121 114 0
-121 -119 0
-114 119 121 0
-120 122 0
-121 122 0
-122 120 121 0
-123 -15 0
-123 31 0
15 -31 123 0
-124 15 0
-124 -31 0
-15 31 124 0
-123 125 0
-124 125 0
-125 123 124 0
-126 -14 0
-126 30 0
14 -30 126 0
-127 14 0
-127 -30 0
-14 30 127 0
-126 128 0
-127 128 0
-128 126 127 0
-129 -13 0
-129 29 0
13 -29 129 0
-130 13 0
-130 -29 0
-13 29 130 0
-129 131 0
-130 131 0
-131 129 130 0
-16 -132 0
16 132 0
-132 133 0
-32 133 0
-133 132 32 0
-15 -134 0
15 134 0
-134 135 0
-31 135 0
-135 134 31 0
-14 -136 0
14 136 0
-136 137 0
-30 137 0
-137 136 30 0
-13 -138 0
13 138 0
-138 139 0
-29 139 0
-139 138 29 0
-139 -140 0
139 140 0
-141 -131 0
-141 -137 0
131 137 141 0
-142 -128 0
-142 -131 0
-142 -135 0
128 131 135 142 0
-143 -125 0
-143 -128 0
-143 -131 0
-143 -133 0
125 128 131 133 143 0
-140 144 0
-141 144 0
-142 144 0
-143 144 0
-144 140 141 142 143 0
-145 -16 0
-145 32 0
16 -32 145 0
-146 16 0
-146 -32 0
-16 32 146 0
-145 147 0
-146 147 0
-147 145 146 0
-148 -147 0
-148 -125 0
-148 -128 0
-148 -131 0
147 125 128 131 148 0
-149 -144 0
-149 -148 0
144 148 149 0
-144 -150 0
144 150 0
-150 151 0
-149 151 0
-151 150 149 0
-54 -152 0
54 152 0
-152 153 0
-59 153 0
-153 152 59 0
-84 -154 0
84 154 0
-154 155 0
-89 155 0
-155 154 89 0
-114 -156 0
114 156 0
-156 157 0
-119 157 0
-157 156 119 0
-157 -158 0
157 158 0
-159 -122 0
-159 -155 0
122 155 159 0
-160 -92 0
-160 -122 0
-160 -153 0
92 122 153 160 0
-161 -62 0
-161 -92 0
-161 -122 0
-161 -151 0
62 92 122 151 161 0
-158 162 0
-159 162 0
-160 162 0
-161 162 0
-162 158 159 160 161 0
-163 -144 0
-163 149 0
144 -149 163 0
-164 144 0
-164 -149 0
-144 149 164 0
-163 165 0
-164 165 0
-165 163 164 0
-166 -165 0
-166 -62 0
-166 -92 0
-166 -122 0
165 62 92 122 166 0
-167 -162 0
-167 -166 0
162 166 167 0
-182 -11 0
-182 27 0
11 -27 182 0
-183 11 0
-183 -27 0
-11 27 183 0
-182 184 0
-183 184 0
-184 182 183 0
-185 -10 0
-185 26 0
10 -26 185 0
-186 10 0
-186 -26 0
-10 26 186 0
-185 187 0
-186 187 0
-187 185 186 0
-188 -9 0
-188 25 0
9 -25 188 0
-189 9 0
-189 -25 0
-9 25 189 0
-188 190 0
-189 190 0
-190 188 189 0
-12 -191 0
12 191 0
-191 192 0
-28 192 0
-192 191 28 0
-11 -193 0
11 193 0
-193 194 0
-27 194 0
-194 193 27 0
-10 -195 0
10 195 0
-195 196 0
-26 196 0
-196 195 26 0
-9 -197 0
9 197 0
-197 198 0
-25 198 0
-198 197 25 0
-198 -199 0
198 199 0
-200 -190 0
-200 -196 0
190 196 200 0
-201 -187 0
-201 -190 0
-201 -194 0
187 190 194 201 0
-202 -184 0
-202 -187 0
-202 -190 0
-202 -192 0
184 187 190 192 202 0
-199 203 0
-200 203 0
-201 203 0
-202 203 0
-203 199 200 201 202 0
-204 -12 0
-204 28 0
12 -28 204 0
-205 12 0
-205 -28 0
-12 28 205 0
-204 206 0
-205 206 0
-206 204 205 0
-207 -206 0
-207 -184 0
-207 -187 0
-207 -190 0
206 184 187 190 207 0
-208 -203 0
-208 -207 0
203 207 208 0
-209 -203 0
-209 208 0
203 -208 209 0
-210 203 0
-210 -208 0
-203 208 210 0
-209 211 0
-210 211 0
-211 209 210 0
-212 -7 0
-212 23 0
7 -23 212 0
-213 7 0
-213 -23 0
-7 23 213 0
-212 214 0
-213 214 0
-214 212 213 0
-215 -6 0
-215 22 0
6 -22 215 0
-216 6 0
-216 -22 0
-6 22 216 0
-215 217 0
-216 217 0
-217 215 216 0
-218 -5 0
-218 21 0
5 -21 218 0
-219 5 0
-219 -21 0
-5 21 219 0
-218 220 0
-219 220 0
-220 218 219 0
-8 -221 0
8 221 0
-221 222 0
-24 222 0
-222 221 24 0
-7 -223 0
7 223 0
-223 224 0
-23 224 0
-224 223 23 0
-6 -225 0
6 225 0
-225 226 0
-22 226 0
-226 225 22 0
-5 -227 0
5 227 0
-227 228 0
-21 228 0
-228 227 21 0
-228 -229 0
228 229 0
-230 -220 0
-230 -226 0
220 226 230 0
-231 -217 0
-231 -220 0
-231 -224 0
217 220 224 231 0
-232 -214 0
-232 -217 0
-232 -220 0
-232 -222 0
214 217 220 222 232 0
-229 233 0
-230 233 0
-231 233 0
-232 233 0
-233 229 230 231 232 0
-234 -8 0
-234 24 0
8 -24 234 0
-235 8 0
-235 -24 0
-8 24 235 0
-234 236 0
-235 236 0
-236 234 235 0
-237 -236 0
-237 -214 0
-237 -217 0
-237 -220 0
236 214 217 220 237 0
-238 -233 0
-238 -237 0
233 237 238 0
-239 -233 0
-239 238 0
233 -238 239 0
-240 233 0
-240 -238 0
-233 238 240 0
-239 241 0
-240 241 0
-241 239 240 0
-242 -3 0
-242 19 0
3 -19 242 0
-243 3 0
-243 -19 0
-3 19 243 0
-242 244 0
-243 244 0
-244 242 243 0
-245 -2 0
-245 18 0
2 -18 245 0
-246 2 0
-246 -18 0
-2 18 246 0
-245 247 0
-246 247 0
-247 245 246 0
-4 -248 0
4 248 0
-248 249 0
-20 249 0
-249 248 20 0
-3 -250 0
3 250 0
-250 251 0
-19 251 0
-251 250 19 0
-2 -252 0
2 252 0
-252 253 0
-18 253 0
-253 252 18 0
-1 -254 0
1 254 0
-254 255 0
-17 255 0
-255 254 17 0
-255 -256 0
255 256 0
-257 -168 0
-257 -253 0
168 253 257 0
-258 -247 0
-258 -168 0
-258 -251 0
247 168 251 258 0
-259 -244 0
-259 -247 0
-259 -168 0
-259 -249 0
244 247 168 249 259 0
-256 260 0
-257 260 0
-258 260 0
-259 260 0
-260 256 257 258 259 0
-261 -4 0
-261 20 0
4 -20 261 0
-262 4 0
-262 -20 0
-4 20 262 0
-261 263 0
-262 263 0
-263 261 262 0
-264 -263 0
-264 -244 0
-264 -247 0
-264 -168 0
263 244 247 168 264 0
-265 -260 0
-265 -264 0
260 264 265 0
-266 -260 0
-266 265 0
260 -265 266 0
-267 260 0
-267 -265 0
-260 265 267 0
-266 268 0
-267 268 0
-268 266 267 0
-203 -269 0
203 269 0
-269 270 0
-208 270 0
-270 269 208 0
-233 -271 0
233 271 0
-271 272 0
-238 272 0
-272 271 238 0
-260 -273 0
260 273 0
-273 274 0
-265 274 0
-274 273 265 0
-274 -275 0
274 275 0
-276 -268 0
-276 -272 0
268 272 276 0
-277 -241 0
-277 -268 0
-277 -270 0
241 268 270 277 0
-278 -211 0
-278 -241 0
-278 -268 0
-278 -169 0
211 241 268 169 278 0
-275 279 0
-276 279 0
-277 279 0
-278 279 0
-279 275 276 277 278 0
-280 -170 0
-280 171 0
170 -171 280 0
-281 170 0
-281 -171 0
-170 171 281 0
-280 282 0
-281 282 0
-282 280 281 0
-283 -282 0
-283 -211 0
-283 -241 0
-283 -268 0
282 211 241 268 283 0
-284 -279 0
-284 -283 0
279 283 284 0
-285 -15 0
-285 31 0
15 -31 285 0
-286 15 0
-286 -31 0
-15 31 286 0
-285 287 0
-286 287 0
-287 285 286 0
-288 -14 0
-288 30 0
14 -30 288 0
-289 14 0
-289 -30 0
-14 30 289 0
-288 290 0
-289 290 0
-290 288 289 0
-291 -13 0
-291 29 0
13 -29 291 0
-292 13 0
-292 -29 0
-13 29 292 0
-291 293 0
-292 293 0
-293 291 292 0
-16 -294 0
16 294 0
-294 295 0
-32 295 0
-295 294 32 0
-15 -296 0
15 296 0
-296 297 0
-31 297 0
-297 296 31 0
-14 -298 0
14 298 0
-298 299 0
-30 299 0
-299 298 30 0
-13 -300 0
13 300 0
-300 301 0
-29 301 0
-301 300 29 0
-302 -16 0
-302 32 0
16 -32 302 0
-303 16 0
-303 -32 0
-16 32 303 0
-302 304 0
-303 304 0
-304 302 303 0
-305 -304 0
-305 -287 0
-305 -290 0
-305 -293 0
304 287 290 293 305 0
-306 -167 284 0
-306 167 -284 0
306 -167 -284 0
306 167 284 0
-307 -166 283 0
-307 166 -283 0
307 -166 -283 0
307 166 283 0
-308 -162 279 0
-308 162 -279 0
308 -162 -279 0
308 162 279 0
-306 -307 -308 309 0
-309 306 0
-309 307 0
-309 308 0
-1 -172 -310 0
-1 172 310 0
1 -172 310 0
1 172 -310 0
-17 -173 -311 0
-17 173 311 0
17 -173 311 0
17 173 -311 0
-287 -174 -312 0
-287 174 312 0
287 -174 312 0
287 174 -312 0
-290 -175 -313 0
-290 175 313 0
290 -175 313 0
290 175 -313 0
-293 -176 -314 0
-293 176 314 0
293 -176 314 0
293 176 -314 0
-295 -177 -315 0
-295 177 315 0
295 -177 315 0
295 177 -315 0
-297 -178 -316 0
-297 178 316 0
297 -178 316 0
297 178 -316 0
-299 -179 -317 0
-299 179 317 0
299 -179 317 0
299 179 -317 0
-301 -180 -318 0
-301 180 318 0
301 -180 318 0
301 180 -318 0
-305 -181 -319 0
-305 181 319 0
305 -181 319 0
305 181 -319 0
310 311 312 313 314 315 316 317 318 319 309 0
-11 -1172 0
27 -1172 0
11 -27 1172 0
11 -1173 0
-27 -1173 0
-11 27 1173 0
-33 -1174 0
-34 -1174 0
33 34 1174 0
-10 -1175 0
26 -1175 0
10 -26 1175 0
10 -1176 0
-26 -1176 0
-10 26 1176 0
-36 -1177 0
-37 -1177 0
36 37 1177 0
-9 -1178 0
25 -1178 0
9 -25 1178 0
9 -1179 0
-25 -1179 0
-9 25 1179 0
-39 -1180 0
-40 -1180 0
39 40 1180 0
-28 -1181 0
-42 -1181 0
28 42 1181 0
-27 -1182 0
-44 -1182 0
27 44 1182 0
-26 -1183 0
-46 -1183 0
26 46 1183 0
-25 -1184 0
-48 -1184 0
25 48 1184 0
-41 -1185 0
-47 -1185 0
41 47 1185 0
-38 -1186 0
-41 -1186 0
38 41 1186 0
-45 -1187 0
1186 -1187 0
45 -1186 1187 0
-35 -1188 0
1186 -1188 0
35 -1186 1188 0
-43 -1189 0
1188 -1189 0
43 -1188 1189 0
-50 -1190 0
-51 -1190 0
50 51 1190 0
-52 -1191 0
-53 -1191 0
52 53 1191 0
1190 -1192 0
1191 -1192 0
-1190 -1191 1192 0
-12 -1193 0
28 -1193 0
12 -28 1193 0
12 -1194 0
-28 -1194 0
-12 28 1194 0
-55 -1195 0
-56 -1195 0
55 56 1195 0
-57 -1196 0
1188 -1196 0
57 -1188 1196 0
-54 -1197 0
-58 -1197 0
54 58 1197 0
-54 -1198 0
59 -1198 0
54 -59 1198 0
54 -1199 0
-59 -1199 0
-54 59 1199 0
-60 -1200 0
-61 -1200 0
60 61 1200 0
-7 -1201 0
23 -1201 0
7 -23 1201 0
7 -1202 0
-23 -1202 0
-7 23 1202 0
-63 -1203 0
-64 -1203 0
63 64 1203 0
-6 -1204 0
22 -1204 0
6 -22 1204 0
6 -1205 0
-22 -1205 0
-6 22 1205 0
-66 -1206 0
-67 -1206 0
66 67 1206 0
-5 -1207 0
21 -1207 0
5 -21 1207 0
5 -1208 0
-21 -1208 0
-5 21 1208 0
-69 -1209 0
-70 -1209 0
69 70 1209 0
-24 -1210 0
-72 -1210 0
24 72 1210 0
-23 -1211 0
-74 -1211 0
23 74 1211 0
-22 -1212 0
-76 -1212 0
22 76 1212 0
-21 -1213 0
-78 -1213 0
21 78 1213 0
-71 -1214 0
-77 -1214 0
71 77 1214 0
-68 -1215 0
-71 -1215 0
68 71 1215 0
-75 -1216 0
1215 -1216 0
75 -1215 1216 0
-65 -1217 0
1215 -1217 0
65 -1215 1217 0
-73 -1218 0
1217 -1218 0
73 -1217 1218 0
-80 -1219 0
-81 -1219 0
80 81 1219 0
-82 -1220 0
-83 -1220 0
82 83 1220 0
1219 -1221 0
1220 -1221 0
-1219 -1220 1221 0
-8 -1222 0
24 -1222 0
8 -24 1222 0
8 -1223 0
-24 -1223 0
-8 24 1223 0
-85 -1224 0
-86 -1224 0
85 86 1224 0
-87 -1225 0
1217 -1225 0
87 -1217 1225 0
-84 -1226 0
-88 -1226 0
84 88 1226 0
-84 -1227 0
89 -1227 0
84 -89 1227 0
84 -1228 0
-89 -1228 0
-84 89 1228 0
-90 -1229 0
-91 -1229 0
90 91 1229 0
-3 -1230 0
19 -1230 0
3 -19 1230 0
3 -1231 0
-19 -1231 0
-3 19 1231 0
-93 -1232 0
-94 -1232 0
93 94 1232 0
-2 -1233 0
18 -1233 0
2 -18 1233 0
2 -1234 0
-18 -1234 0
-2 18 1234 0
-96 -1235 0
-97 -1235 0
96 97 1235 0
-1 -1236 0
17 -1236 0
1 -17 1236 0
1 -1237 0
-17 -1237 0
-1 17 1237 0
-99 -1238 0
-100 -1238 0
99 100 1238 0
-20 -1239 0
-102 -1239 0
20 102 1239 0
-19 -1240 0
-104 -1240 0
19 104 1240 0
-18 -1241 0
-106 -1241 0
18 106 1241 0
-17 -1242 0
-108 -1242 0
17 108 1242 0
-101 -1243 0
-107 -1243 0
101 107 1243 0
-98 -1244 0
-101 -1244 0
98 101 1244 0
-105 -1245 0
1244 -1245 0
105 -1244 1245 0
-95 -1246 0
1244 -1246 0
95 -1244 1246 0
-103 -1247 0
1246 -1247 0
103 -1246 1247 0
-110 -1248 0
-111 -1248 0
110 111 1248 0
-112 -1249 0
-113 -1249 0
112 113 1249 0
1248 -1250 0
1249 -1250 0
-1248 -1249 1250 0
-4 -1251 0
20 -1251 0
4 -20 1251 0
4 -1252 0
-20 -1252 0
-4 20 1252 0
-115 -1253 0
-116 -1253 0
115 116 1253 0
-117 -1254 0
1246 -1254 0
117 -1246 1254 0
-114 -1255 0
-118 -1255 0
114 118 1255 0
-114 -1256 0
119 -1256 0
114 -119 1256 0
114 -1257 0
-119 -1257 0
-114 119 1257 0
-120 -1258 0
-121 -1258 0
120 121 1258 0
-15 -1259 0
31 -1259 0
15 -31 1259 0
15 -1260 0
-31 -1260 0
-15 31 1260 0
-123 -1261 0
-124 -1261 0
123 124 1261 0
-14 -1262 0
30 -1262 0
14 -30 1262 0
14 -1263 0
-30 -1263 0
-14 30 1263 0
-126 -1264 0
-127 -1264 0
126 127 1264 0
-13 -1265 0
29 -1265 0
13 -29 1265 0
13 -1266 0
-29 -1266 0
-13 29 1266 0
-129 -1267 0
-130 -1267 0
129 130 1267 0
-32 -1268 0
-132 -1268 0
32 132 1268 0
-31 -1269 0
-134 -1269 0
31 134 1269 0
-30 -1270 0
-136 -1270 0
30 136 1270 0
-29 -1271 0
-138 -1271 0
29 138 1271 0
-131 -1272 0
-137 -1272 0
131 137 1272 0
-128 -1273 0
-131 -1273 0
128 131 1273 0
-135 -1274 0
1273 -1274 0
135 -1273 1274 0
-125 -1275 0
1273 -1275 0
125 -1273 1275 0
-133 -1276 0
1275 -1276 0
133 -1275 1276 0
-140 -1277 0
-141 -1277 0
140 141 1277 0
-142 -1278 0
-143 -1278 0
142 143 1278 0
1277 -1279 0
1278 -1279 0
-1277 -1278 1279 0
-16 -1280 0
32 -1280 0
16 -32 1280 0
16 -1281 0
-32 -1281 0
-16 32 1281 0
-145 -1282 0
-146 -1282 0
145 146 1282 0
-147 -1283 0
1275 -1283 0
147 -1275 1283 0
-144 -1284 0
-148 -1284 0
144 148 1284 0
-149 -1285 0
-150 -1285 0
149 150 1285 0
-59 -1286 0
-152 -1286 0
59 152 1286 0
-89 -1287 0
-154 -1287 0
89 154 1287 0
-119 -1288 0
-156 -1288 0
119 156 1288 0
-122 -1289 0
-155 -1289 0
122 155 1289 0
-92 -1290 0
-122 -1290 0
92 122 1290 0
-153 -1291 0
1290 -1291 0
153 -1290 1291 0
-62 -1292 0
1290 -1292 0
62 -1290 1292 0
-151 -1293 0
1292 -1293 0
151 -1292 1293 0
-158 -1294 0
-159 -1294 0
158 159 1294 0
-160 -1295 0
-161 -1295 0
160 161 1295 0
1294 -1296 0
1295 -1296 0
-1294 -1295 1296 0
-144 -1297 0
149 -1297 0
144 -149 1297 0
144 -1298 0
-149 -1298 0
-144 149 1298 0
-163 -1299 0
-164 -1299 0
163 164 1299 0
-165 -1300 0
1292 -1300 0
165 -1292 1300 0
-162 -1301 0
-166 -1301 0
162 166 1301 0
-182 -1302 0
-183 -1302 0
182 183 1302 0
-185 -1303 0
-186 -1303 0
185 186 1303 0
-188 -1304 0
-189 -1304 0
188 189 1304 0
-28 -1305 0
-191 -1305 0
28 191 1305 0
-27 -1306 0
-193 -1306 0
27 193 1306 0
-26 -1307 0
-195 -1307 0
26 195 1307 0
-25 -1308 0
-197 -1308 0
25 197 1308 0
-190 -1309 0
-196 -1309 0
190 196 1309 0
-187 -1310 0
-190 -1310 0
187 190 1310 0
-194 -1311 0
1310 -1311 0
194 -1310 1311 0
-184 -1312 0
1310 -1312 0
184 -1310 1312 0
-192 -1313 0
1312 -1313 0
192 -1312 1313 0
-199 -1314 0
-200 -1314 0
199 200 1314 0
-201 -1315 0
-202 -1315 0
201 202 1315 0
1314 -1316 0
1315 -1316 0
-1314 -1315 1316 0
-204 -1317 0
-205 -1317 0
204 205 1317 0
-206 -1318 0
1312 -1318 0
206 -1312 1318 0
-203 -1319 0
-207 -1319 0
203 207 1319 0
-203 -1320 0
208 -1320 0
203 -208 1320 0
203 -1321 0
-208 -1321 0
-203 208 1321 0
-209 -1322 0
-210 -1322 0
209 210 1322 0
-212 -1323 0
-213 -1323 0
212 213 1323 0
-215 -1324 0
-216 -1324 0
215 216 1324 0
-218 -1325 0
-219 -1325 0
218 219 1325 0
-24 -1326 0
-221 -1326 0
24 221 1326 0
-23 -1327 0
-223 -1327 0
23 223 1327 0
-22 -1328 0
-225 -1328 0
22 225 1328 0
-21 -1329 0
-227 -1329 0
21 227 1329 0
-220 -1330 0
-226 -1330 0
220 226 1330 0
-217 -1331 0
-220 -1331 0
217 220 1331 0
-224 -1332 0
1331 -1332 0
224 -1331 1332 0
-214 -1333 0
1331 -1333 0
214 -1331 1333 0
-222 -1334 0
1333 -1334 0
222 -1333 1334 0
-229 -1335 0
-230 -1335 0
229 230 1335 0
-231 -1336 0
-232 -1336 0
231 232 1336 0
1335 -1337 0
1336 -1337 0
-1335 -1336 1337 0
-234 -1338 0
-235 -1338 0
234 235 1338 0
-236 -1339 0
1333 -1339 0
236 -1333 1339 0
-233 -1340 0
-237 -1340 0
233 237 1340 0
-233 -1341 0
238 -1341 0
233 -238 1341 0
233 -1342 0
-238 -1342 0
-233 238 1342 0
-239 -1343 0
-240 -1343 0
239 240 1343 0
-242 -1344 0
-243 -1344 0
242 243 1344 0
-245 -1345 0
-246 -1345 0
245 246 1345 0
-20 -1346 0
-248 -1346 0
20 248 1346 0
-19 -1347 0
-250 -1347 0
19 250 1347 0
-18 -1348 0
-252 -1348 0
18 252 1348 0
-17 -1349 0
-254 -1349 0
17 254 1349 0
-256 -1350 0
-257 -1350 0
256 257 1350 0
-258 -1351 0
-259 -1351 0
258 259 1351 0
1350 -1352 0
1351 -1352 0
-1350 -1351 1352 0
-261 -1353 0
-262 -1353 0
261 262 1353 0
-260 -1354 0
-264 -1354 0
260 264 1354 0
-260 -1355 0
265 -1355 0
260 -265 1355 0
260 -1356 0
-265 -1356 0
-260 265 1356 0
-266 -1357 0
-267 -1357 0
266 267 1357 0
-208 -1358 0
-269 -1358 0
208 269 1358 0
-238 -1359 0
-271 -1359 0
238 271 1359 0
-265 -1360 0
-273 -1360 0
265 273 1360 0
-268 -1361 0
-272 -1361 0
268 272 1361 0
-241 -1362 0
-268 -1362 0
241 268 1362 0
-270 -1363 0
1362 -1363 0
270 -1362 1363 0
-275 -1364 0
-276 -1364 0
275 276 1364 0
-277 -1365 0
-278 -1365 0
277 278 1365 0
1364 -1366 0
1365 -1366 0
-1364 -1365 1366 0
-280 -1367 0
-281 -1367 0
280 281 1367 0
-211 -1368 0
-282 -1368 0
211 282 1368 0
1362 -1369 0
1368 -1369 0
-1362 -1368 1369 0
-279 -1370 0
-283 -1370 0
279 283 1370 0
-285 -1371 0
-286 -1371 0
285 286 1371 0
-288 -1372 0
-289 -1372 0
288 289 1372 0
-291 -1373 0
-292 -1373 0
291 292 1373 0
-32 -1374 0
-294 -1374 0
32 294 1374 0
-31 -1375 0
-296 -1375 0
31 296 1375 0
-30 -1376 0
-298 -1376 0
30 298 1376 0
-29 -1377 0
-300 -1377 0
29 300 1377 0
-302 -1378 0
-303 -1378 0
302 303 1378 0
-287 -1379 0
-290 -1379 0
287 290 1379 0
-293 -1380 0
-304 -1380 0
293 304 1380 0
1379 -1381 0
1380 -1381 0
-1379 -1380 1381 0
167 -1382 0
-284 -1382 0
-167 284 1382 0
-167 -1383 0
284 -1383 0
167 -284 1383 0
-1382 -1384 0
-1383 -1384 0
1382 1383 1384 0
166 -1385 0
-283 -1385 0
-166 283 1385 0
-166 -1386 0
283 -1386 0
166 -283 1386 0
-1385 -1387 0
-1386 -1387 0
1385 1386 1387 0
162 -1388 0
-279 -1388 0
-162 279 1388 0
-162 -1389 0
279 -1389 0
162 -279 1389 0
-1388 -1390 0
-1389 -1390 0
1388 1389 1390 0
306 -1391 0
307 -1391 0
-306 -307 1391 0
308 -1392 0
1391 -1392 0
-308 -1391 1392 0
-1 -1393 0
-172 -1393 0
1 172 1393 0
1 -1394 0
172 -1394 0
-1 -172 1394 0
-1393 -1395 0
-1394 -1395 0
1393 1394 1395 0
-17 -1396 0
-173 -1396 0
17 173 1396 0
17 -1397 0
173 -1397 0
-17 -173 1397 0
-1396 -1398 0
-1397 -1398 0
1396 1397 1398 0
-174 -1399 0
287 -1399 0
174 -287 1399 0
31 -1400 0
123 -1400 0
-31 -123 1400 0
-1260 -1401 0
-1400 -1401 0
1260 1400 1401 0
-1399 -1402 0
-1401 -1402 0
1399 1401 1402 0
174 -1403 0
-287 -1403 0
-174 287 1403 0
-1259 -1404 0
-1260 -1404 0
1259 1260 1404 0
-1403 -1405 0
1404 -1405 0
1403 -1404 1405 0
-1402 -1406 0
-1405 -1406 0
1402 1405 1406 0
-1262 -1407 0
-1263 -1407 0
1262 1263 1407 0
175 -1408 0
-290 -1408 0
-175 290 1408 0
1407 -1409 0
1408 -1409 0
-1407 -1408 1409 0
-175 -1410 0
290 -1410 0
175 -290 1410 0
-1407 -1411 0
1410 -1411 0
1407 -1410 1411 0
-1409 -1412 0
-1411 -1412 0
1409 1411 1412 0
-1265 -1413 0
-1266 -1413 0
1265 1266 1413 0
176 -1414 0
-293 -1414 0
-176 293 1414 0
1413 -1415 0
1414 -1415 0
-1413 -1414 1415 0
-176 -1416 0
293 -1416 0
176 -293 1416 0
-1413 -1417 0
1416 -1417 0
1413 -1416 1417 0
-1415 -1418 0
-1417 -1418 0
1415 1417 1418 0
-177 -1419 0
-295 -1419 0
177 295 1419 0
177 -1420 0
295 -1420 0
-177 -295 1420 0
-1419 -1421 0
-1420 -1421 0
1419 1420 1421 0
-31 -1422 0
178 -1422 0
31 -178 1422 0
-297 -1423 0
1422 -1423 0
297 -1422 1423 0
-178 -1424 0
297 -1424 0
178 -297 1424 0
-1423 -1425 0
-1424 -1425 0
1423 1424 1425 0
-179 -1426 0
299 -1426 0
179 -299 1426 0
-1263 -1427 0
-1426 -1427 0
1263 1426 1427 0
179 -1428 0
-299 -1428 0
-179 299 1428 0
1263 -1429 0
-1428 -1429 0
-1263 1428 1429 0
-1427 -1430 0
-1429 -1430 0
1427 1429 1430 0
-180 -1431 0
-1266 -1431 0
180 1266 1431 0
180 -1432 0
1266 -1432 0
-180 -1266 1432 0
-1431 -1433 0
-1432 -1433 0
1431 1432 1433 0
-181 -1434 0
-305 -1434 0
181 305 1434 0
181 -1435 0
305 -1435 0
-181 -305 1435 0
-1434 -1436 0
-1435 -1436 0
1434 1435 1436 0
